(declare-fun temp414_2 () (_ BitVec 64))
(declare-fun temp414_1 () (_ BitVec 64))
(declare-fun temp414_4 () (_ BitVec 64))
(declare-fun temp414_3 () (_ BitVec 64))
(declare-fun temp414_5 () (_ BitVec 64))
(declare-fun var984667 () (_ BitVec 64))
(declare-fun temp414_6 () (_ BitVec 64))
(declare-fun temp414_7 () (_ BitVec 64))
(declare-fun temp414_8 () (_ BitVec 64))
(declare-fun ARGNAME_input_NAMEEND_DIMSIZE
             ()
             (Array (_ BitVec 64) (_ BitVec 64)))
(declare-fun temp414_9 () (_ BitVec 64))
(declare-fun temp414_10 () (_ BitVec 64))
(declare-fun temp414_11 () (_ BitVec 64))
(declare-fun temp414_12 () (_ BitVec 64))
(declare-fun temp414_13 () (_ BitVec 64))
(declare-fun temp414_14 () (_ BitVec 64))
(declare-fun temp414_15 () (_ BitVec 64))
(declare-fun temp414_16 () (_ BitVec 64))
(declare-fun temp414_17 () (_ BitVec 64))
(declare-fun temp414_18 () (_ BitVec 64))
(declare-fun temp414_19 () (_ BitVec 64))
(declare-fun temp414_20 () (_ BitVec 64))
(declare-fun temp414_21 () (_ BitVec 64))
(declare-fun temp414_22 () (_ BitVec 64))
(declare-fun temp414_23 () (_ BitVec 64))
(declare-fun temp414_25 () (_ BitVec 64))
(declare-fun temp414_24 () (_ BitVec 64))
(declare-fun ARGNAME_input_NAMEEND_DIM () (_ BitVec 64))
(declare-fun temp414_26 () (_ BitVec 64))
(declare-fun temp414_27 () (_ BitVec 64))
(declare-fun var984666 () (_ BitVec 64))
(declare-fun temp414_28 () (_ BitVec 64))
(declare-fun var984671 () (_ BitVec 64))
(declare-fun temp414_30 () (_ BitVec 64))
(declare-fun temp414_29 () (_ BitVec 64))
(declare-fun temp414_31 () (_ BitVec 64))
(declare-fun temp414_32 () (_ BitVec 64))
(declare-fun var984670 () (_ BitVec 64))
(declare-fun temp414_33 () (_ BitVec 64))
(declare-fun var984672 () (_ BitVec 64))
(declare-fun temp414_34 () (_ BitVec 64))
(declare-fun ARGNAME_B_NAMEEND_DIM () (_ BitVec 64))
(declare-fun var1117880 () (_ BitVec 64))
(declare-fun temp414_35 () (_ BitVec 64))
(declare-fun temp414_36 () (_ BitVec 64))
(declare-fun temp414_37 () (_ BitVec 64))
(declare-fun var921814 () (_ BitVec 64))
(declare-fun var921834 () (_ BitVec 64))
(declare-fun temp414_38 () (_ BitVec 64))
(declare-fun temp414_39 () (_ BitVec 64))
(declare-fun var921835 () (_ BitVec 64))
(declare-fun temp414_41 () (_ BitVec 64))
(declare-fun temp414_40 () (_ BitVec 64))
(declare-fun temp414_42 () (_ BitVec 64))
(declare-fun temp414_43 () (_ BitVec 64))
(declare-fun var921836 () (_ BitVec 64))
(declare-fun temp414_44 () (_ BitVec 64))
(declare-fun temp414_45 () (_ BitVec 64))
(declare-fun ARGNAME_B_NAMEEND_DIMSIZE () (Array (_ BitVec 64) (_ BitVec 64)))
(declare-fun temp414_46 () (_ BitVec 64))
(declare-fun temp414_47 () (_ BitVec 64))
(declare-fun temp414_48 () (_ BitVec 64))
(declare-fun temp414_49 () (_ BitVec 64))
(declare-fun temp414_50 () (_ BitVec 64))
(declare-fun temp414_51 () (_ BitVec 64))
(declare-fun temp414_52 () (_ BitVec 64))
(declare-fun temp414_53 () (_ BitVec 64))
(declare-fun temp414_54 () (_ BitVec 64))
(declare-fun temp414_55 () (_ BitVec 64))
(declare-fun temp414_56 () (_ BitVec 64))
(declare-fun temp414_57 () (_ BitVec 64))
(declare-fun temp414_58 () (_ BitVec 64))
(declare-fun temp414_59 () (_ BitVec 64))
(declare-fun temp414_60 () (_ BitVec 64))
(declare-fun temp414_61 () (_ BitVec 64))
(declare-fun temp414_63 () (_ BitVec 64))
(declare-fun temp414_62 () (_ BitVec 64))
(declare-fun temp414_64 () (_ BitVec 64))
(declare-fun temp414_65 () (_ BitVec 64))
(declare-fun var921838 () (_ BitVec 64))
(declare-fun var921839 () (_ BitVec 64))
(declare-fun temp414_66 () (_ BitVec 64))
(declare-fun temp414_67 () (_ BitVec 64))
(declare-fun var1709354 () (_ BitVec 64))
(declare-fun var1841618 () (_ BitVec 64))
(declare-fun temp414_68 () (_ BitVec 64))
(declare-fun var1904193 () (_ BitVec 64))
(declare-fun temp414_69 () (_ BitVec 64))
(declare-fun var863717 () (_ BitVec 64))
(declare-fun temp414_70 () (_ BitVec 64))
(assert (= temp414_2 #x0000000000000000))
(assert (= temp414_1 temp414_2))
(assert (= temp414_4 #x0000000000000001))
(assert (= temp414_3 temp414_4))
(assert (= temp414_5 #xffffffffffffffff))
(assert (= var984667 temp414_5))
(assert (= temp414_6 #x0000000000000000))
(assert (= temp414_7 temp414_6))
(assert (= temp414_8 (select ARGNAME_input_NAMEEND_DIMSIZE temp414_7)))
(assert (= temp414_9 #x0000000000000001))
(assert (= temp414_10 temp414_9))
(assert (= temp414_11 (select ARGNAME_input_NAMEEND_DIMSIZE temp414_10)))
(assert (= temp414_12 #x0000000000000002))
(assert (= temp414_13 temp414_12))
(assert (= temp414_14 (select ARGNAME_input_NAMEEND_DIMSIZE temp414_13)))
(assert (= temp414_15 #x0000000000000003))
(assert (= temp414_16 temp414_15))
(assert (= temp414_17 (select ARGNAME_input_NAMEEND_DIMSIZE temp414_16)))
(assert (= temp414_18 #x0000000000000004))
(assert (= temp414_19 temp414_18))
(assert (= temp414_20 (select ARGNAME_input_NAMEEND_DIMSIZE temp414_19)))
(assert (= temp414_21 #x0000000000000005))
(assert (= temp414_22 temp414_21))
(assert (= temp414_23 (select ARGNAME_input_NAMEEND_DIMSIZE temp414_22)))
(assert (= temp414_25 #x0000000000000000))
(assert (= temp414_24
   (ite (bvslt var984667 temp414_25)
        (bvadd ARGNAME_input_NAMEEND_DIM var984667)
        var984667)))
(assert (= temp414_26 temp414_24))
(assert (= temp414_27 (select ARGNAME_input_NAMEEND_DIMSIZE temp414_26)))
(assert (= var984666 temp414_27))
(assert (bvslt temp414_24 ARGNAME_input_NAMEEND_DIM))
(assert (= temp414_28 #xfffffffffffffffe))
(assert (= var984671 temp414_28))
(assert (= temp414_30 #x0000000000000000))
(assert (= temp414_29
   (ite (bvslt var984671 temp414_30)
        (bvadd ARGNAME_input_NAMEEND_DIM var984671)
        var984671)))
(assert (= temp414_31 temp414_29))
(assert (= temp414_32 (select ARGNAME_input_NAMEEND_DIMSIZE temp414_31)))
(assert (= var984670 temp414_32))
(assert (bvslt temp414_29 ARGNAME_input_NAMEEND_DIM))
(assert (= var984672
   (ite (= var984666 var984670) #x0000000000000001 #x0000000000000000)))
(assert (= temp414_33 #x0000000000000001))
(assert (= var984672 temp414_33))
(assert (= temp414_34 #x0000000000000002))
(assert (= var1117880
   (ite (bvslt ARGNAME_B_NAMEEND_DIM temp414_34)
        #x0000000000000001
        #x0000000000000000)))
(assert (= temp414_35 #x0000000000000000))
(assert (= var1117880 temp414_35))
(assert (= temp414_36 #xfffffffffffffffe))
(assert (= temp414_37 #xffffffffffffffff))
(assert (= var921834 (ite (= var921814 #x0000000000000001) temp414_36 temp414_37)))
(assert (= temp414_38 #xfffffffffffffffe))
(assert (= temp414_39 #xffffffffffffffff))
(assert (= var921835 (ite (= var921814 #x0000000000000001) temp414_38 temp414_39)))
(assert (= temp414_41 #x0000000000000000))
(assert (= temp414_40
   (ite (bvslt var921834 temp414_41)
        (bvadd ARGNAME_input_NAMEEND_DIM var921834)
        var921834)))
(assert (= temp414_42 temp414_40))
(assert (= temp414_43 (select ARGNAME_input_NAMEEND_DIMSIZE temp414_42)))
(assert (= var921836 temp414_43))
(assert (bvslt temp414_40 ARGNAME_input_NAMEEND_DIM))
(assert (= temp414_44 #x0000000000000000))
(assert (= temp414_45 temp414_44))
(assert (= temp414_46 (select ARGNAME_B_NAMEEND_DIMSIZE temp414_45)))
(assert (= temp414_47 #x0000000000000001))
(assert (= temp414_48 temp414_47))
(assert (= temp414_49 (select ARGNAME_B_NAMEEND_DIMSIZE temp414_48)))
(assert (= temp414_50 #x0000000000000002))
(assert (= temp414_51 temp414_50))
(assert (= temp414_52 (select ARGNAME_B_NAMEEND_DIMSIZE temp414_51)))
(assert (= temp414_53 #x0000000000000003))
(assert (= temp414_54 temp414_53))
(assert (= temp414_55 (select ARGNAME_B_NAMEEND_DIMSIZE temp414_54)))
(assert (= temp414_56 #x0000000000000004))
(assert (= temp414_57 temp414_56))
(assert (= temp414_58 (select ARGNAME_B_NAMEEND_DIMSIZE temp414_57)))
(assert (= temp414_59 #x0000000000000005))
(assert (= temp414_60 temp414_59))
(assert (= temp414_61 (select ARGNAME_B_NAMEEND_DIMSIZE temp414_60)))
(assert (= temp414_63 #x0000000000000000))
(assert (= temp414_62
   (ite (bvslt var921835 temp414_63)
        (bvadd ARGNAME_B_NAMEEND_DIM var921835)
        var921835)))
(assert (= temp414_64 temp414_62))
(assert (= temp414_65 (select ARGNAME_B_NAMEEND_DIMSIZE temp414_64)))
(assert (= var921838 temp414_65))
(assert (bvslt temp414_62 ARGNAME_B_NAMEEND_DIM))
(assert (= var921839
   (ite (= var921836 var921838) #x0000000000000001 #x0000000000000000)))
(assert (= temp414_66 #x0000000000000001))
(assert (= var921839 temp414_66))
(assert (= temp414_67 #x0000000000000000))
(assert (= var1709354 temp414_67))
(assert (= var1841618 var1709354))
(assert (= temp414_68 #x0000000000000001))
(assert (= var1904193 temp414_68))
(assert (= temp414_69 #x0000000000000000))
(assert (= var863717 temp414_69))
(assert (= temp414_70 #x0000000000000000))
(assert (= var863717 temp414_70))
(model-add temp414_2 () (_ BitVec 64) #x0000000000000000)
(model-add temp414_1 () (_ BitVec 64) #x0000000000000000)
(model-add temp414_4 () (_ BitVec 64) #x0000000000000001)
(model-add temp414_3 () (_ BitVec 64) #x0000000000000001)
(model-add temp414_5 () (_ BitVec 64) #xffffffffffffffff)
(model-add var984667 () (_ BitVec 64) #xffffffffffffffff)
(model-add temp414_6 () (_ BitVec 64) #x0000000000000000)
(model-add temp414_7 () (_ BitVec 64) #x0000000000000000)
(model-add temp414_8
           ()
           (_ BitVec 64)
           (select ARGNAME_input_NAMEEND_DIMSIZE #x0000000000000000))
(model-add temp414_9 () (_ BitVec 64) #x0000000000000001)
(model-add temp414_10 () (_ BitVec 64) #x0000000000000001)
(model-add temp414_11
           ()
           (_ BitVec 64)
           (select ARGNAME_input_NAMEEND_DIMSIZE #x0000000000000001))
(model-add temp414_12 () (_ BitVec 64) #x0000000000000002)
(model-add temp414_13 () (_ BitVec 64) #x0000000000000002)
(model-add temp414_14
           ()
           (_ BitVec 64)
           (select ARGNAME_input_NAMEEND_DIMSIZE #x0000000000000002))
(model-add temp414_15 () (_ BitVec 64) #x0000000000000003)
(model-add temp414_16 () (_ BitVec 64) #x0000000000000003)
(model-add temp414_17
           ()
           (_ BitVec 64)
           (select ARGNAME_input_NAMEEND_DIMSIZE #x0000000000000003))
(model-add temp414_18 () (_ BitVec 64) #x0000000000000004)
(model-add temp414_19 () (_ BitVec 64) #x0000000000000004)
(model-add temp414_20
           ()
           (_ BitVec 64)
           (select ARGNAME_input_NAMEEND_DIMSIZE #x0000000000000004))
(model-add temp414_21 () (_ BitVec 64) #x0000000000000005)
(model-add temp414_22 () (_ BitVec 64) #x0000000000000005)
(model-add temp414_23
           ()
           (_ BitVec 64)
           (select ARGNAME_input_NAMEEND_DIMSIZE #x0000000000000005))
(model-add temp414_25 () (_ BitVec 64) #x0000000000000000)
(model-add temp414_24
           ()
           (_ BitVec 64)
           (bvadd #xffffffffffffffff ARGNAME_input_NAMEEND_DIM))
(model-add temp414_26
           ()
           (_ BitVec 64)
           (bvadd #xffffffffffffffff ARGNAME_input_NAMEEND_DIM))
(model-add temp414_27
           ()
           (_ BitVec 64)
           (select ARGNAME_input_NAMEEND_DIMSIZE
                   (bvadd #xffffffffffffffff ARGNAME_input_NAMEEND_DIM)))
(model-add var984666
           ()
           (_ BitVec 64)
           (select ARGNAME_input_NAMEEND_DIMSIZE
                   (bvadd #xffffffffffffffff ARGNAME_input_NAMEEND_DIM)))
(model-add temp414_28 () (_ BitVec 64) #xfffffffffffffffe)
(model-add var984671 () (_ BitVec 64) #xfffffffffffffffe)
(model-add temp414_30 () (_ BitVec 64) #x0000000000000000)
(model-add temp414_29
           ()
           (_ BitVec 64)
           (bvadd #xfffffffffffffffe ARGNAME_input_NAMEEND_DIM))
(model-add temp414_31
           ()
           (_ BitVec 64)
           (bvadd #xfffffffffffffffe ARGNAME_input_NAMEEND_DIM))
(model-add temp414_32
           ()
           (_ BitVec 64)
           (select ARGNAME_input_NAMEEND_DIMSIZE
                   (bvadd #xfffffffffffffffe ARGNAME_input_NAMEEND_DIM)))
(model-add var984670
           ()
           (_ BitVec 64)
           (select ARGNAME_input_NAMEEND_DIMSIZE
                   (bvadd #xfffffffffffffffe ARGNAME_input_NAMEEND_DIM)))
(model-add temp414_33 () (_ BitVec 64) #x0000000000000001)
(model-add var984672 () (_ BitVec 64) #x0000000000000001)






